NAME: PointSet_Angle_5_4
TYPE: TSP
COMMENT: Points chosen discrete uniformly at random out of ${0, \ldots, 500}^2$.
DIMENSION: 5
EDGE_WEIGHT_TYPE: EUC_2D
NODE_COORD_SECTION
1 1 284
2 169 17
3 370 244
4 84 226
5 401 278
EOF
